4 5
162 119 137 152 
0 38 36 57 54 68 73 100 91 81 89 62 59 59 29 85 80 82 59 63 78 4
1 103 100 42 35 68 77 15 12 58 62 81 96 27 50 46 38 95 87 10 5 2
2 79 78 56 49 18 19 103 98 43 96 81 43 65 4 78 32 90 36 52 69 1
3 3 11 54 58 11 12 49 59 91 48 73 45 30 56 11 23 38 92 49 98 2
4 102 100 48 43 94 93 40 44 31 31 73 1 48 42 35 5 68 99 49 97 3
